50
1000
240
238
237
237
236
234
231
225
225
224
221
220
220
218
217
215
214
212
209
209
202
201
200
200
199
197
197
197
197
196
195
193
189
189
187
187
185
182
180
180
179
178
177
175
170
169
169
168
167
163
